GLPSOL: GLPK LP/MIP Solver, v4.55
Parameter(s) specified in the command line:
 -m tmp.mod
Reading model section from tmp.mod...
Reading data section from tmp.mod...
139 lines were read
Generating obj...
Generating kirhoff...
Generating init_charge...
Generating batt_size...
Model has been successfully generated
GLPK Simplex Optimizer, v4.55
86 rows, 134 columns, 260 non-zeros
Preprocessing...
57 rows, 115 columns, 233 non-zeros
Scaling...
 A: min|aij| =  1.000e+00  max|aij| =  1.000e+00  ratio =  1.000e+00
Problem data seem to be well scaled
Constructing initial basis...
Size of triangular part is 54
      0: obj =   0.000000000e+00  infeas =  4.100e+01 (3)
*    21: obj =   0.000000000e+00  infeas =  0.000e+00 (3)
OPTIMAL LP SOLUTION FOUND
Time used:   0.0 secs
Memory used: 0.4 Mb (371576 bytes)
#OUTPUT:
0
-6 0 0 -3 0 -5 -7 0 0 3 0 0 0 0 0 7 1 -3 0 
-5 0 0 -2 0 -2 0 -3 0 -5 0 0 0 0 0 0 -2 -2 0 
-1 0 0 -1 0 0 0 -1 0 0 0 0 0 0 0 0 0 0 0 
#OUTPUT END
Model has been successfully processed
